p cnf 60 335
4 0
-1 0
8 0
-5 0
12 0
-9 0
16 0
-13 0
20 0
-17 0
24 0
-21 0
28 0
-25 0
32 0
-29 0
36 0
-33 0
40 0
-37 0
44 0
-41 0
48 0
-45 0
52 0
-49 0
56 0
-53 0
60 0
-57 0
-1 2 0
-2 3 0
-3 4 0
-5 6 0
-6 7 0
-7 8 0
-9 10 0
-10 11 0
-11 12 0
-13 14 0
-14 15 0
-15 16 0
-17 18 0
-18 19 0
-19 20 0
-21 22 0
-22 23 0
-23 24 0
-25 26 0
-26 27 0
-27 28 0
-29 30 0
-30 31 0
-31 32 0
-33 34 0
-34 35 0
-35 36 0
-37 38 0
-38 39 0
-39 40 0
-41 42 0
-42 43 0
-43 44 0
-45 46 0
-46 47 0
-47 48 0
-49 50 0
-50 51 0
-51 52 0
-53 54 0
-54 55 0
-55 56 0
-57 58 0
-58 59 0
-59 60 0
-5 -9 25 0
-5 -25 9 0
-9 -25 5 0
-6 -10 26 0
-6 -26 10 0
-10 -26 6 0
-7 -11 27 0
-7 -27 11 0
-11 -27 7 0
-8 -12 28 0
-8 -28 12 0
-12 -28 8 0
-5 -13 29 0
-5 -29 13 0
-13 -29 5 0
-6 -14 30 0
-6 -30 14 0
-14 -30 6 0
-7 -15 31 0
-7 -31 15 0
-15 -31 7 0
-8 -16 32 0
-8 -32 16 0
-16 -32 8 0
-5 -17 33 0
-5 -33 17 0
-17 -33 5 0
-6 -18 34 0
-6 -34 18 0
-18 -34 6 0
-7 -19 35 0
-7 -35 19 0
-19 -35 7 0
-8 -20 36 0
-8 -36 20 0
-20 -36 8 0
-9 -13 41 0
-9 -41 13 0
-13 -41 9 0
-10 -14 42 0
-10 -42 14 0
-14 -42 10 0
-11 -15 43 0
-11 -43 15 0
-15 -43 11 0
-12 -16 44 0
-12 -44 16 0
-16 -44 12 0
-9 -17 45 0
-9 -45 17 0
-17 -45 9 0
-10 -18 46 0
-10 -46 18 0
-18 -46 10 0
-11 -19 47 0
-11 -47 19 0
-19 -47 11 0
-12 -20 48 0
-12 -48 20 0
-20 -48 12 0
-13 -17 53 0
-13 -53 17 0
-17 -53 13 0
-14 -18 54 0
-14 -54 18 0
-18 -54 14 0
-15 -19 55 0
-15 -55 19 0
-19 -55 15 0
-16 -20 56 0
-16 -56 20 0
-20 -56 16 0
-25 -29 41 0
-25 -41 29 0
-29 -41 25 0
-26 -30 42 0
-26 -42 30 0
-30 -42 26 0
-27 -31 43 0
-27 -43 31 0
-31 -43 27 0
-28 -32 44 0
-28 -44 32 0
-32 -44 28 0
-25 -33 45 0
-25 -45 33 0
-33 -45 25 0
-26 -34 46 0
-26 -46 34 0
-34 -46 26 0
-27 -35 47 0
-27 -47 35 0
-35 -47 27 0
-28 -36 48 0
-28 -48 36 0
-36 -48 28 0
-29 -33 53 0
-29 -53 33 0
-33 -53 29 0
-30 -34 54 0
-30 -54 34 0
-34 -54 30 0
-31 -35 55 0
-31 -55 35 0
-35 -55 31 0
-32 -36 56 0
-32 -56 36 0
-36 -56 32 0
-41 -45 53 0
-41 -53 45 0
-45 -53 41 0
-42 -46 54 0
-42 -54 46 0
-46 -54 42 0
-43 -47 55 0
-43 -55 47 0
-47 -55 43 0
-44 -48 56 0
-44 -56 48 0
-48 -56 44 0
-5 1 0
-5 21 0
-6 2 0
-6 22 0
-7 3 0
-7 23 0
-8 4 0
-8 24 0
-9 1 0
-9 37 0
-10 2 0
-10 38 0
-11 3 0
-11 39 0
-12 4 0
-12 40 0
-13 1 0
-13 49 0
-14 2 0
-14 50 0
-15 3 0
-15 51 0
-16 4 0
-16 52 0
-17 1 0
-17 57 0
-18 2 0
-18 58 0
-19 3 0
-19 59 0
-20 4 0
-20 60 0
-25 21 0
-25 37 0
-26 22 0
-26 38 0
-27 23 0
-27 39 0
-28 24 0
-28 40 0
-29 21 0
-29 49 0
-30 22 0
-30 50 0
-31 23 0
-31 51 0
-32 24 0
-32 52 0
-33 21 0
-33 57 0
-34 22 0
-34 58 0
-35 23 0
-35 59 0
-36 24 0
-36 60 0
-41 37 0
-41 49 0
-42 38 0
-42 50 0
-43 39 0
-43 51 0
-44 40 0
-44 52 0
-45 37 0
-45 57 0
-46 38 0
-46 58 0
-47 39 0
-47 59 0
-48 40 0
-48 60 0
-53 49 0
-53 57 0
-54 50 0
-54 58 0
-55 51 0
-55 59 0
-56 52 0
-56 60 0
-6 1 21 0
-7 2 22 0
-8 3 23 0
-10 1 37 0
-11 2 38 0
-12 3 39 0
-14 1 49 0
-15 2 50 0
-16 3 51 0
-18 1 57 0
-19 2 58 0
-20 3 59 0
-26 21 37 0
-27 22 38 0
-28 23 39 0
-30 21 49 0
-31 22 50 0
-32 23 51 0
-34 21 57 0
-35 22 58 0
-36 23 59 0
-42 37 49 0
-43 38 50 0
-44 39 51 0
-46 37 57 0
-47 38 58 0
-48 39 59 0
-54 49 57 0
-55 50 58 0
-56 51 59 0
-2 1 -22 6 0
-2 21 -22 6 0
-3 2 -23 7 0
-3 22 -23 7 0
-4 3 -24 8 0
-4 23 -24 8 0
-2 1 -38 10 0
-2 37 -38 10 0
-3 2 -39 11 0
-3 38 -39 11 0
-4 3 -40 12 0
-4 39 -40 12 0
-22 21 -50 30 0
-22 49 -50 30 0
-23 22 -51 31 0
-23 50 -51 31 0
-24 23 -52 32 0
-24 51 -52 32 0
-22 21 -38 26 0
-22 37 -38 26 0
-23 22 -39 27 0
-23 38 -39 27 0
-24 23 -40 28 0
-24 39 -40 28 0
-38 37 -58 46 0
-38 57 -58 46 0
-39 38 -59 47 0
-39 58 -59 47 0
-40 39 -60 48 0
-40 59 -60 48 0
